NAME : X-n195-k51
COMMENT : "Generated by Uchoa, Pecin, Pessoa, Poggi, Subramanian, and Vidal (2013)"
TYPE : CVRP
DIMENSION : 195
EDGE_WEIGHT_TYPE : EUC_2D
EDGE_WEIGHT_FORMAT : 
CAPACITY : 181
DISTANCE : 1.79769e+308
SERVICE_TIME : 0
NODE_COORD_SECTION
1 500 500
2 691 729
3 978 828
4 427 367
5 777 543
6 190 596
7 773 750
8 234 727
9 851 358
10 140 69
11 891 285
12 467 13
13 537 162
14 636 355
15 213 284
16 75 877
17 384 814
18 606 173
19 76 236
20 86 733
21 642 61
22 303 261
23 771 775
24 107 264
25 763 43
26 811 873
27 38 170
28 822 920
29 907 792
30 539 273
31 576 836
32 491 411
33 430 725
34 727 248
35 532 825
36 457 218
37 398 153
38 942 597
39 8 330
40 637 85
41 75 781
42 578 635
43 560 188
44 27 523
45 432 198
46 359 691
47 695 372
48 203 307
49 641 389
50 836 612
51 375 499
52 818 980
53 577 226
54 889 259
55 516 324
56 102 346
57 318 976
58 223 11
59 484 245
60 365 982
61 648 790
62 878 261
63 600 800
64 493 722
65 549 214
66 714 918
67 638 166
68 452 172
69 711 687
70 924 905
71 326 662
72 786 203
73 24 32
74 529 661
75 843 248
76 115 449
77 82 971
78 876 644
79 322 24
80 642 810
81 685 607
82 141 824
83 351 732
84 641 954
85 330 941
86 830 188
87 469 250
88 970 812
89 723 360
90 274 238
91 668 103
92 562 82
93 269 147
94 135 493
95 895 953
96 930 729
97 579 972
98 901 987
99 546 102
100 664 479
101 967 393
102 388 767
103 977 995
104 968 434
105 517 382
106 974 455
107 537 160
108 457 1
109 556 91
110 995 969
111 768 432
112 991 1000
113 295 704
114 802 446
115 785 358
116 576 108
117 592 694
118 527 109
119 607 347
120 693 470
121 690 10
122 843 955
123 767 401
124 854 524
125 325 778
126 465 885
127 415 721
128 889 993
129 955 943
130 394 769
131 584 479
132 545 66
133 496 700
134 942 991
135 888 436
136 980 290
137 958 475
138 444 754
139 583 835
140 435 761
141 887 925
142 919 932
143 997 371
144 710 300
145 597 547
146 253 971
147 372 794
148 648 450
149 438 871
150 758 513
151 638 469
152 313 682
153 728 143
154 852 970
155 458 787
156 635 24
157 752 463
158 616 535
159 944 381
160 524 482
161 550 133
162 564 44
163 625 799
164 660 428
165 575 120
166 433 847
167 657 524
168 516 12
169 766 270
170 355 615
171 265 183
172 984 952
173 361 749
174 464 642
175 919 380
176 941 995
177 638 508
178 699 633
179 773 599
180 492 754
181 559 108
182 231 773
183 250 657
184 581 467
185 275 755
186 381 870
187 983 445
188 989 455
189 654 377
190 520 87
191 365 726
192 646 438
193 349 696
194 490 876
195 211 808
PICKUP_AND_DELIVERY_SECTION
1 0 0 0 0 0 0
2 0 0 0 0 0 79
3 0 0 0 0 84 0
4 0 0 0 0 0 100
5 0 0 0 0 23 0
6 0 0 0 0 0 32
7 0 0 0 0 90 0
8 0 0 0 0 0 8
9 0 0 0 0 50 0
10 0 0 0 0 0 29
11 0 0 0 0 96 0
12 0 0 0 0 0 26
13 0 0 0 0 17 0
14 0 0 0 0 0 92
15 0 0 0 0 41 0
16 0 0 0 0 0 16
17 0 0 0 0 95 0
18 0 0 0 0 0 41
19 0 0 0 0 69 0
20 0 0 0 0 0 30
21 0 0 0 0 83 0
22 0 0 0 0 0 11
23 0 0 0 0 84 0
24 0 0 0 0 0 38
25 0 0 0 0 29 0
26 0 0 0 0 0 88
27 0 0 0 0 33 0
28 0 0 0 0 0 77
29 0 0 0 0 76 0
30 0 0 0 0 0 74
31 0 0 0 0 16 0
32 0 0 0 0 0 31
33 0 0 0 0 33 0
34 0 0 0 0 0 76
35 0 0 0 0 16 0
36 0 0 0 0 0 28
37 0 0 0 0 67 0
38 0 0 0 0 0 22
39 0 0 0 0 61 0
40 0 0 0 0 0 72
41 0 0 0 0 27 0
42 0 0 0 0 0 96
43 0 0 0 0 2 0
44 0 0 0 0 0 88
45 0 0 0 0 88 0
46 0 0 0 0 0 6
47 0 0 0 0 22 0
48 0 0 0 0 0 7
49 0 0 0 0 20 0
50 0 0 0 0 0 69
51 0 0 0 0 72 0
52 0 0 0 0 0 58
53 0 0 0 0 87 0
54 0 0 0 0 0 32
55 0 0 0 0 25 0
56 0 0 0 0 0 4
57 0 0 0 0 61 0
58 0 0 0 0 0 1
59 0 0 0 0 61 0
60 0 0 0 0 0 84
61 0 0 0 0 75 0
62 0 0 0 0 0 16
63 0 0 0 0 75 0
64 0 0 0 0 0 100
65 0 0 0 0 87 0
66 0 0 0 0 0 30
67 0 0 0 0 6 0
68 0 0 0 0 0 8
69 0 0 0 0 79 0
70 0 0 0 0 0 31
71 0 0 0 0 2 0
72 0 0 0 0 0 53
73 0 0 0 0 75 0
74 0 0 0 0 0 76
75 0 0 0 0 94 0
76 0 0 0 0 0 16
77 0 0 0 0 87 0
78 0 0 0 0 0 58
79 0 0 0 0 13 0
80 0 0 0 0 0 92
81 0 0 0 0 89 0
82 0 0 0 0 0 93
83 0 0 0 0 15 0
84 0 0 0 0 0 90
85 0 0 0 0 5 0
86 0 0 0 0 0 35
87 0 0 0 0 43 0
88 0 0 0 0 0 64
89 0 0 0 0 35 0
90 0 0 0 0 0 17
91 0 0 0 0 9 0
92 0 0 0 0 0 59
93 0 0 0 0 98 0
94 0 0 0 0 0 10
95 0 0 0 0 2 0
96 0 0 0 0 0 89
97 0 0 0 0 5 0
98 0 0 0 0 0 17
99 0 0 0 0 19 0
100 0 0 0 0 0 43
101 0 0 0 0 50 0
102 0 0 0 0 0 86
103 0 0 0 0 27 0
104 0 0 0 0 0 6
105 0 0 0 0 34 0
106 0 0 0 0 0 46
107 0 0 0 0 39 0
108 0 0 0 0 0 12
109 0 0 0 0 7 0
110 0 0 0 0 0 76
111 0 0 0 0 30 0
112 0 0 0 0 0 24
113 0 0 0 0 42 0
114 0 0 0 0 0 89
115 0 0 0 0 64 0
116 0 0 0 0 0 29
117 0 0 0 0 27 0
118 0 0 0 0 0 49
119 0 0 0 0 54 0
120 0 0 0 0 0 73
121 0 0 0 0 90 0
122 0 0 0 0 0 12
123 0 0 0 0 42 0
124 0 0 0 0 0 3
125 0 0 0 0 36 0
126 0 0 0 0 0 84
127 0 0 0 0 13 0
128 0 0 0 0 0 52
129 0 0 0 0 28 0
130 0 0 0 0 0 17
131 0 0 0 0 21 0
132 0 0 0 0 0 37
133 0 0 0 0 72 0
134 0 0 0 0 0 16
135 0 0 0 0 52 0
136 0 0 0 0 0 83
137 0 0 0 0 45 0
138 0 0 0 0 0 86
139 0 0 0 0 2 0
140 0 0 0 0 0 80
141 0 0 0 0 36 0
142 0 0 0 0 0 89
143 0 0 0 0 89 0
144 0 0 0 0 0 56
145 0 0 0 0 19 0
146 0 0 0 0 0 36
147 0 0 0 0 86 0
148 0 0 0 0 0 78
149 0 0 0 0 45 0
150 0 0 0 0 0 3
151 0 0 0 0 72 0
152 0 0 0 0 0 82
153 0 0 0 0 67 0
154 0 0 0 0 0 65
155 0 0 0 0 26 0
156 0 0 0 0 0 20
157 0 0 0 0 80 0
158 0 0 0 0 0 67
159 0 0 0 0 24 0
160 0 0 0 0 0 42
161 0 0 0 0 95 0
162 0 0 0 0 0 6
163 0 0 0 0 78 0
164 0 0 0 0 0 92
165 0 0 0 0 34 0
166 0 0 0 0 0 50
167 0 0 0 0 93 0
168 0 0 0 0 0 38
169 0 0 0 0 48 0
170 0 0 0 0 0 73
171 0 0 0 0 48 0
172 0 0 0 0 0 23
173 0 0 0 0 66 0
174 0 0 0 0 0 24
175 0 0 0 0 6 0
176 0 0 0 0 0 41
177 0 0 0 0 61 0
178 0 0 0 0 0 12
179 0 0 0 0 44 0
180 0 0 0 0 0 40
181 0 0 0 0 49 0
182 0 0 0 0 0 23
183 0 0 0 0 15 0
184 0 0 0 0 0 45
185 0 0 0 0 7 0
186 0 0 0 0 0 55
187 0 0 0 0 26 0
188 0 0 0 0 0 14
189 0 0 0 0 19 0
190 0 0 0 0 0 87
191 0 0 0 0 49 0
192 0 0 0 0 0 11
193 0 0 0 0 48 0
194 0 0 0 0 0 64
195 0 0 0 0 54 0
